NAME : coverage_path
TYPE : ATSP
DIMENSION : 39
EDGE_WEIGHT_TYPE : EXPLICIT
EDGE_WEIGHT_FORMAT : FULL_MATRIX
EDGE_WEIGHT_SECTION
0 203995 203004 202024 201092 993 200590 200508 201135 203999 203011 202040 200911 201192 1169 201236 204246 203332 202615 201983 201487 201325 202040 201749 204698 203891 101681 203178 202880 205301 204602 204121 203716 206012 205405 204922 204747 204708 204671 
0 0 2000 4000 5990 8646 9900 7189 11110 2000 2828 4455 8421 7762 11625 12285 4000 4472 5417 10074 9614 16808 14061 15427 6000 8009 10692 9787 16749 8000 10010 12107 18591 10000 12010 14042 15897 18063 20168 
0 2000 0 2000 3990 5931 7890 5124 9100 2828 2000 2810 5029 4204 9615 10275 4472 4000 4322 4867 7604 14798 12051 13417 8009 6000 8682 6007 14739 10010 8000 10097 16581 12010 10000 12032 13887 16053 18158 
0 4000 2000 0 1990 3941 5880 3133 7090 4472 2828 1990 3398 2586 7605 8265 5656 4472 4004 3908 4242 12788 10041 11407 10020 8009 6672 5755 12729 12020 10010 8087 14571 14019 12010 10022 11877 14043 16148 
0 5990 3990 1990 0 1979 3899 1189 4357 8000 4473 2828 2594 1934 5798 6458 10000 5666 4624 3861 3787 9686 8103 8305 12000 9990 8652 7747 11036 14000 11990 10067 12878 16000 13990 12002 13858 16024 18128 
0 8646 5931 3941 1979 0 1088 1554 2134 10646 8636 4638 1801 3519 1881 4399 12646 10636 8631 3280 6433 7627 3034 6246 14646 12636 5046 10393 8977 16646 14636 12713 10819 18646 16636 14648 17194 15028 12924 
0 9900 7890 5880 3899 1088 0 2710 1210 11900 9890 7860 4857 5834 5017 2589 13900 11890 9885 7815 7687 6373 7322 4992 15900 13890 11347 11647 7723 17900 15890 13967 9565 19900 17890 15902 15940 13774 11670 
0 7189 5124 3133 1189 1554 2710 0 3613 9189 5361 3506 5060 3124 5219 5856 11189 9179 7175 4448 4976 9084 7525 7703 13189 11179 11549 8936 10434 15189 13179 11256 12276 17189 15179 13191 15047 16485 14380 
0 11110 9100 7090 4357 2134 1210 3613 0 12210 10200 8220 5798 6458 2594 1934 14210 12200 10245 8756 8310 5162 5147 4030 16210 14200 12288 12007 6513 18210 16200 14327 8355 20575 18565 16585 14729 12563 10459 
0 2000 2828 4472 8000 10646 11900 9189 12210 0 2000 3990 6411 5750 9615 10275 2000 2828 4171 5398 7604 14452 11705 13071 4000 4472 8674 5299 15271 6000 8009 9751 20220 8000 10010 11990 13845 16011 18116 
0 2828 2000 2828 4473 8636 9890 5361 10200 2000 0 1990 4552 3751 7605 8265 2828 2000 2593 3564 5594 12442 9695 11061 4472 4000 4922 4134 13261 8009 6000 7741 18210 10010 8000 9980 11835 14001 16106 
0 4455 2810 1990 2828 4638 7860 3506 8220 3990 1990 0 2564 1761 5614 6285 4473 2838 2025 2086 3614 10808 8061 9427 5666 4491 4692 3767 10749 9990 7980 6107 12590 11990 9980 8042 9897 12063 14168 
0 8421 5029 3398 2594 1801 4857 5060 5798 6411 4552 2564 0 835 1524 3687 8411 4916 3608 1212 2512 7091 2754 5710 10411 8401 3556 6208 8442 12411 10401 8528 10283 14411 12401 10463 12319 14485 12388 
0 7762 4204 2586 1934 3519 5834 3124 6458 5750 3751 1761 835 0 3869 4480 7752 4299 2941 1948 1840 7751 6169 6370 9752 5559 6454 4676 9101 11752 9742 7869 10943 13752 11742 9804 11659 13825 13047 
0 11625 9615 7605 5798 1881 5017 5219 2594 9615 7605 5614 1524 3869 0 800 11615 9605 7650 3080 5716 3887 1936 2029 13615 11605 4846 9412 4348 15615 13605 11732 7079 19300 17290 15310 13454 11288 9184 
0 12285 10275 8265 6458 4399 2589 5856 1934 10275 8265 6285 3687 4480 800 0 12275 10265 8310 6821 6375 3227 3212 1846 14275 12265 10353 10072 4246 16275 14265 12392 6420 18640 16630 14650 12794 10629 8524 
0 4000 4472 5656 10000 12646 13900 11189 14210 2000 2828 4473 8411 7752 11615 12275 0 2000 3670 5116 9604 12452 9705 11071 2000 2828 4757 4134 13271 4000 4472 5530 18220 6000 8009 9990 11845 14011 16116 
0 4472 4000 4472 5666 10636 11890 9179 12200 2828 2000 2838 4916 4299 9605 10265 2000 0 1670 3120 7594 10442 7695 9061 2828 2000 3218 2470 11261 4472 4000 4427 16210 8009 6000 7980 9835 12001 14106 
0 5417 4322 4004 4624 8631 9885 7175 10245 4171 2593 2025 3608 2941 7650 8310 3670 1670 0 1459 5639 8782 6035 7401 4190 2624 2512 1761 8723 5446 4359 4080 10565 9670 7660 6016 7872 10038 12142 
0 10074 4867 3908 3861 3280 7815 4448 8756 5398 3564 2086 1212 1948 3080 6821 5116 3120 1459 0 7688 6734 2442 5353 7718 4044 1765 3810 6675 9718 7708 6130 8517 11718 9708 8065 9920 12086 10621 
0 9614 7604 4242 3787 6433 7687 4976 8310 7604 5594 3614 2512 1840 5716 6375 9604 7594 5639 7688 0 9603 8021 8222 11604 9594 8306 7401 10954 13604 11594 9721 12795 15604 13594 11656 13512 15678 14900 
0 16808 14798 12788 9686 7627 6373 9084 5162 14452 12442 10808 7091 7751 3887 3227 12452 10442 8782 6734 9603 0 2746 1381 14452 12442 10266 10544 3817 16452 14442 12864 5954 18174 16164 14184 12329 10163 8058 
0 14061 12051 10041 8103 3034 7322 7525 5147 11705 9695 8061 2754 6169 1936 3212 9705 7695 6035 2442 8021 2746 0 1096 11705 9695 2985 7797 1681 13705 11695 10117 3420 18159 16149 14169 12313 10148 5449 
0 15427 13417 11407 8305 6246 4992 7703 4030 13071 11061 9427 5710 6370 2029 1846 11071 9061 7401 5353 8222 1381 1096 0 13071 11061 8884 9163 2433 15071 13061 11483 4252 16793 14783 12803 10947 8782 6677 
0 6000 8009 10020 12000 14646 15900 13189 16210 4000 4472 5666 10411 9752 13615 14275 2000 2828 4190 7718 11604 14452 11705 13071 0 2000 4096 3759 11271 2000 2828 4279 16220 4000 4472 5638 9845 12011 14116 
0 8009 6000 8009 9990 12636 13890 11179 14200 4472 4000 4491 8401 5559 11605 12265 2828 2000 2624 4044 9594 12442 9695 11061 2000 0 2120 1769 9261 2828 2000 2706 14210 4472 4000 4455 5702 10001 12106 
0 10692 8682 6672 8652 5046 11347 11549 12288 8674 4922 4692 3556 6454 4846 10353 4757 3218 2512 1765 8306 10266 2985 8884 4096 2120 0 787 6597 4352 2582 1631 8439 5396 4105 3520 7015 9181 11286 
0 9787 6007 5755 7747 10393 11647 8936 12007 5299 4134 3767 6208 4676 9412 10072 4134 2470 1761 3810 7401 10544 7797 9163 3759 1769 787 0 7502 4379 2862 2320 9344 5678 4611 4246 6110 8276 10380 
0 16749 14739 12729 11036 8977 7723 10434 6513 15271 13261 10749 8442 9101 4348 4246 13271 11261 8723 6675 10954 3817 1681 2433 11271 9261 6597 7502 0 13271 11261 9822 1841 14062 12052 10072 8216 6050 3940 
0 8000 10010 12020 14000 16646 17900 15189 18210 6000 8009 9990 12411 11752 15615 16275 4000 4472 5446 9718 13604 16452 13705 15071 2000 2828 4352 4379 13271 0 2000 3750 14220 2000 2828 4455 7845 10011 12116 
0 10010 8000 10010 11990 14636 15890 13179 16200 8009 6000 7980 10401 9742 13605 14265 4472 4000 4359 7708 11594 14442 11695 13061 2828 2000 2582 2862 11261 2000 0 1751 12210 2828 2000 2810 4428 8001 10106 
0 12107 10097 8087 10067 12713 13967 11256 14327 9751 7741 6107 8528 7869 11732 12392 5530 4427 4080 6130 9721 12864 10117 11483 4279 2706 1631 2320 9822 3750 1751 0 10165 4223 2616 1934 2998 5956 8060 
0 18591 16581 14571 12878 10819 9565 12276 8355 20220 18210 12590 10283 10943 7079 6420 18220 16210 10565 8517 12795 5954 3420 4252 16220 14210 8439 9344 1841 14220 12210 10165 0 12220 10210 8230 6374 4208 2104 
0 10000 12010 14019 16000 18646 19900 17189 20575 8000 10010 11990 14411 13752 19300 18640 6000 8009 9670 11718 15604 18174 18159 16793 4000 4472 5396 5678 14062 2000 2828 4223 12220 0 2000 3990 5834 8011 10116 
0 12010 10000 12010 13990 16636 17890 15179 18565 10010 8000 9980 12401 11742 17290 16630 8009 6000 7660 9708 13594 16164 16149 14783 4472 4000 4105 4611 12052 2828 2000 2616 10210 2000 0 1990 3836 6002 8106 
0 14042 12032 10022 12002 14648 15902 13191 16585 11990 9980 8042 10463 9804 15310 14650 9990 7980 6016 8065 11656 14184 14169 12803 5638 4455 3520 4246 10072 4455 2810 1934 8230 3990 1990 0 1855 4019 6125 
0 15897 13887 11877 13858 17194 15940 15047 14729 13845 11835 9897 12319 11659 13454 12794 11845 9835 7872 9920 13512 12329 12313 10947 9845 5702 7015 6110 8216 7845 4428 2998 6374 5834 3836 1855 0 2165 4243 
0 18063 16053 14043 16024 15028 13774 16485 12563 16011 14001 12063 14485 13825 11288 10629 14011 12001 10038 12086 15678 10163 10148 8782 12011 10001 9181 8276 6050 10011 8001 5956 4208 8011 6002 4019 2165 0 2104 
0 20168 18158 16148 18128 12924 11670 14380 10459 18116 16106 14168 12388 13047 9184 8524 16116 14106 12142 10621 14900 8058 5449 6677 14116 12106 11286 10380 3940 12116 10106 8060 2104 10116 8106 6125 4243 2104 0 
EOF